147
1000000
464921
177984
129755
712890
22957
530931
447656
478106
306187
261758
261491
360404
670997
713909
271269
717702
28956
329003
535079
253006
373910
525516
537113
239454
706653
309058
416536
15441
81854
651661
360573
259668
42791
469204
55946
433102
148327
66461
727455
1880
9615
367321
641957
346146
83024
223349
738242
533375
737589
361345
164363
209881
272010
270017
656465
552872
891
100586
126662
535
445188
471882
27557
289461
629397
572417
380904
7871
427583
674017
372238
350348
277630
269898
288719
14191
404134
358043
668119
152039
355193
469069
180106
281714
23999
242574
204812
206687
12392
293321
109292
9369
118041
210796
102245
109547
653854
7867
239074
648757
166029
85764
33711
160833
269761
165551
726889
114117
3424
216143
184365
293347
155472
198428
185994
216978
535844
361364
42834
476202
70974
515042
154309
5919
319128
210091
487075
329690
710539
216339
170866
736927
357326
204723
200168
381262
713001
212255
138302
582517
276604
184911
121728
359070
248531
61983
383516
